(set-option :print-success true)
(set-option :produce-models true)
(set-logic ALL)
(declare-sort Unspecified 0)
(declare-sort Unit 0)
(declare-const loaded_value_0 (_ BitVec 64))
(declare-const clif_load_active_1 Bool)
(declare-const clif_load_size_bits_2 Int)
(declare-const clif_load_addr_3 (_ BitVec 64))
(declare-const clif_store_active_4 Bool)
(declare-const clif_store_size_bits_5 Int)
(declare-const clif_store_addr_6 (_ BitVec 64))
(declare-const clif_store_value_7 (_ BitVec 64))
(declare-const clif_trap_8 Bool)
(declare-const isa_load_active_9 Bool)
(declare-const isa_load_size_bits_10 Int)
(declare-const isa_load_addr_11 (_ BitVec 64))
(declare-const isa_store_active_12 Bool)
(declare-const isa_store_size_bits_13 Int)
(declare-const isa_store_addr_14 (_ BitVec 64))
(declare-const isa_store_value_15 (_ BitVec 64))
(declare-const b0_16 (_ BitVec 1))
(declare-const b3_some_17 Bool)
(declare-const b3_inner_0_aligned_18 Bool)
(declare-const b3_inner_0_trapcode_19 (_ BitVec 4))
(declare-const b3_inner_1_20 (_ BitVec 32))
(declare-const b3_inner_2_21 (_ BitVec 64))
(declare-const b3_inner_3_22 (_ BitVec 32))
(declare-const e23 Bool)
(assert (! (= e23 true) :named expr23))
(declare-const e24 Int)
(assert (! (= e24 32) :named expr24))
(declare-const e25 Bool)
(assert (! (= e25 (= clif_store_size_bits_5 e24)) :named expr25))
(declare-const e26 Int)
(assert (! (= e26 64) :named expr26))
(declare-const e27 (_ BitVec 64))
(assert (! (= e27 ((_ sign_extend 32) b3_inner_3_22)) :named expr27))
(declare-const e28 (_ BitVec 64))
(assert (! (= e28 (bvadd b3_inner_2_21 e27)) :named expr28))
(declare-const e29 Bool)
(assert (! (= e29 (= clif_store_addr_6 e28)) :named expr29))
(declare-const e30 (_ BitVec 32))
(assert (! (= e30 ((_ extract 31 0) clif_store_value_7)) :named expr30))
(declare-const e31 Bool)
(assert (! (= e31 (= e30 b3_inner_1_20)) :named expr31))
(declare-const e32 Bool)
(assert (! (= e32 (and e29 e31)) :named expr32))
(declare-const e33 Bool)
(assert (! (= e33 (and e25 e32)) :named expr33))
(declare-const e34 Bool)
(assert (! (= e34 (and clif_store_active_4 e33)) :named expr34))
(declare-const e35 (_ BitVec 1))
(assert (! (= e35 #b1) :named expr35))
(declare-const e36 Bool)
(assert (! (= e36 (= b0_16 e35)) :named expr36))
(declare-const e37 Bool)
(assert (! (= e37 (and e34 e36)) :named expr37))
(declare-const e38 Bool)
(assert (! (= e38 (= b3_some_17 e23)) :named expr38))
(declare-const e39 Bool)
(assert (! (= e39 (=> e23 e37)) :named expr39))
(declare-const b4_0_aligned_40 Bool)
(declare-const b4_0_trapcode_41 (_ BitVec 4))
(declare-const b4_1_42 (_ BitVec 32))
(declare-const b4_2_43 (_ BitVec 64))
(declare-const b4_3_44 (_ BitVec 32))
(declare-const e45 Bool)
(assert (! (= e45 (= b4_0_aligned_40 b3_inner_0_aligned_18)) :named expr45))
(declare-const e46 Bool)
(assert (! (= e46 (= b4_0_trapcode_41 b3_inner_0_trapcode_19)) :named expr46))
(declare-const e47 Bool)
(assert (! (= e47 (and e45 e46)) :named expr47))
(declare-const e48 Bool)
(assert (! (= e48 (= b4_1_42 b3_inner_1_20)) :named expr48))
(declare-const e49 Bool)
(assert (! (= e49 (= b4_2_43 b3_inner_2_21)) :named expr49))
(declare-const e50 Bool)
(assert (! (= e50 (= b4_3_44 b3_inner_3_22)) :named expr50))
(declare-const e51 Bool)
(assert (! (= e51 (and e47 e48)) :named expr51))
(declare-const e52 Bool)
(assert (! (= e52 (and e51 e49)) :named expr52))
(declare-const e53 Bool)
(assert (! (= e53 (and e52 e50)) :named expr53))
(declare-const e54 Bool)
(assert (! (= e54 (=> b3_some_17 e53)) :named expr54))
(declare-const b5_55 (_ BitVec 32))
(declare-const e56 Bool)
(assert (! (= e56 (= b5_55 b4_1_42)) :named expr56))
(declare-const b6_bits_57 Int)
(declare-const e58 Int)
(assert (! (= e58 32) :named expr58))
(declare-const e59 Bool)
(assert (! (= e59 (= b6_bits_57 e58)) :named expr59))
(declare-const b7_some_60 Bool)
(declare-const b7_inner_bits_61 Int)
(declare-const e62 Bool)
(assert (! (= e62 (= b6_bits_57 b7_inner_bits_61)) :named expr62))
(declare-const e63 Bool)
(assert (! (= e63 (= b7_some_60 e23)) :named expr63))
(declare-const e64 Bool)
(assert (! (= e64 (=> e23 e62)) :named expr64))
(declare-const b8_aligned_65 Bool)
(declare-const b8_trapcode_66 (_ BitVec 4))
(declare-const e67 Bool)
(assert (! (= e67 (= b8_aligned_65 b4_0_aligned_40)) :named expr67))
(declare-const e68 Bool)
(assert (! (= e68 (= b8_trapcode_66 b4_0_trapcode_41)) :named expr68))
(declare-const e69 Bool)
(assert (! (= e69 (and e67 e68)) :named expr69))
(declare-const b9_70 (_ BitVec 64))
(declare-const e71 Bool)
(assert (! (= e71 (= b9_70 b4_2_43)) :named expr71))
(declare-const b10_72 (_ BitVec 32))
(declare-const e73 Bool)
(assert (! (= e73 (= b10_72 b4_3_44)) :named expr73))
(declare-const b12_74 (_ BitVec 64))
(declare-const b36_addr_75 (_ BitVec 64))
(declare-const b36_flags_aligned_76 Bool)
(declare-const b36_flags_trapcode_77 (_ BitVec 4))
(declare-const b35_78 (_ BitVec 32))
(declare-const e79 Bool)
(assert (! (= e79 (= b35_78 b10_72)) :named expr79))
(declare-const b34_80 (_ BitVec 64))
(declare-const e81 Int)
(assert (! (= e81 64) :named expr81))
(declare-const e82 Bool)
(assert (! (= e82 (<= e81 e26)) :named expr82))
(declare-const e83 (_ BitVec 64))
(assert (! (= e83 b9_70) :named expr83))
(declare-const e84 Bool)
(assert (! (= e84 (= b34_80 e83)) :named expr84))
(declare-const e85 (_ BitVec 64))
(assert (! (= e85 ((_ sign_extend 32) b35_78)) :named expr85))
(declare-const e86 (_ BitVec 64))
(assert (! (= e86 (bvadd b34_80 e85)) :named expr86))
(declare-const e87 Bool)
(assert (! (= e87 (= b36_addr_75 e86)) :named expr87))
(declare-const e88 Bool)
(assert (! (= e88 (= b36_flags_aligned_76 b8_aligned_65)) :named expr88))
(declare-const e89 Bool)
(assert (! (= e89 (= b36_flags_trapcode_77 b8_trapcode_66)) :named expr89))
(declare-const e90 Bool)
(assert (! (= e90 (and e88 e89)) :named expr90))
(declare-const e91 Bool)
(assert (! (= e91 (= b12_74 b36_addr_75)) :named expr91))
(declare-const b13_92 (_ BitVec 64))
(declare-const e93 (_ BitVec 64))
(declare-const $conv_to_padding0 (_ BitVec 32))
(assert (! (= e93 (concat $conv_to_padding0 b5_55)) :named expr93))
(declare-const e94 Bool)
(assert (! (= e94 (= b13_92 e93)) :named expr94))
(declare-const b14_bits_95 Int)
(declare-const e96 Bool)
(assert (! (= e96 (= b14_bits_95 b7_inner_bits_61)) :named expr96))
(declare-const e97 Bool)
(assert (! (= e97 (=> b7_some_60 e96)) :named expr97))
(declare-const b17_some_98 Bool)
(declare-const b17_inner_99 (_ BitVec 1))
(declare-const b20_100 (_ BitVec 1))
(declare-const e101 Bool)
(assert (! (= e101 (= b20_100 e35)) :named expr101))
(declare-const e102 Bool)
(assert (! (= e102 (= b20_100 b17_inner_99)) :named expr102))
(declare-const b19_103 (_ BitVec 1))
(declare-const b26_discriminant_104 Int)
(declare-const b26_Inst_inst_105 (_ BitVec 1))
(declare-const b26_Inst2_inst1_106 (_ BitVec 1))
(declare-const b26_Inst2_inst2_107 (_ BitVec 1))
(declare-const b26_Inst3_inst1_108 (_ BitVec 1))
(declare-const b26_Inst3_inst2_109 (_ BitVec 1))
(declare-const b26_Inst3_inst3_110 (_ BitVec 1))
(declare-const e111 Int)
(assert (! (= e111 0) :named expr111))
(declare-const e112 Int)
(assert (! (= e112 3) :named expr112))
(declare-const e113 Bool)
(assert (! (= e113 (<= e111 b26_discriminant_104)) :named expr113))
(declare-const e114 Bool)
(assert (! (= e114 (< b26_discriminant_104 e112)) :named expr114))
(declare-const e115 Bool)
(assert (! (= e115 (and e113 e114)) :named expr115))
(declare-const b25_116 (_ BitVec 1))
(declare-const b24_discriminant_117 Int)
(declare-const e118 Int)
(assert (! (= e118 4) :named expr118))
(declare-const e119 Bool)
(assert (! (= e119 (<= e111 b24_discriminant_117)) :named expr119))
(declare-const e120 Bool)
(assert (! (= e120 (< b24_discriminant_117 e118)) :named expr120))
(declare-const e121 Bool)
(assert (! (= e121 (and e119 e120)) :named expr121))
(declare-const e122 Int)
(assert (! (= e122 8) :named expr122))
(declare-const e123 Bool)
(assert (! (= e123 (= b14_bits_95 e122)) :named expr123))
(declare-const e124 Bool)
(assert (! (= e124 (<= e111 e111)) :named expr124))
(declare-const e125 Bool)
(assert (! (= e125 (< e111 e118)) :named expr125))
(declare-const e126 Bool)
(assert (! (= e126 (and e124 e125)) :named expr126))
(declare-const e127 Int)
(assert (! (= e127 16) :named expr127))
(declare-const e128 Bool)
(assert (! (= e128 (= b14_bits_95 e127)) :named expr128))
(declare-const e129 Int)
(assert (! (= e129 1) :named expr129))
(declare-const e130 Bool)
(assert (! (= e130 (<= e111 e129)) :named expr130))
(declare-const e131 Bool)
(assert (! (= e131 (< e129 e118)) :named expr131))
(declare-const e132 Bool)
(assert (! (= e132 (and e130 e131)) :named expr132))
(declare-const e133 Int)
(assert (! (= e133 32) :named expr133))
(declare-const e134 Bool)
(assert (! (= e134 (= b14_bits_95 e133)) :named expr134))
(declare-const e135 Int)
(assert (! (= e135 2) :named expr135))
(declare-const e136 Bool)
(assert (! (= e136 (<= e111 e135)) :named expr136))
(declare-const e137 Bool)
(assert (! (= e137 (< e135 e118)) :named expr137))
(declare-const e138 Bool)
(assert (! (= e138 (and e136 e137)) :named expr138))
(declare-const e139 Bool)
(assert (! (= e139 (= b14_bits_95 e26)) :named expr139))
(declare-const e140 Bool)
(assert (! (= e140 (<= e111 e112)) :named expr140))
(declare-const e141 Bool)
(assert (! (= e141 (< e112 e118)) :named expr141))
(declare-const e142 Bool)
(assert (! (= e142 (and e140 e141)) :named expr142))
(declare-const undef_143 Int)
(declare-const e144 Int)
(assert (! (= e144 (ite e139 e112 undef_143)) :named expr144))
(declare-const e145 Int)
(assert (! (= e145 (ite e134 e135 e144)) :named expr145))
(declare-const e146 Int)
(assert (! (= e146 (ite e128 e129 e145)) :named expr146))
(declare-const e147 Int)
(assert (! (= e147 (ite e123 e111 e146)) :named expr147))
(declare-const e148 Bool)
(assert (! (= e148 (= b24_discriminant_117 e147)) :named expr148))
(declare-const e149 Bool)
(assert (! (= e149 (= b24_discriminant_117 e111)) :named expr149))
(declare-const e150 Bool)
(assert (! (= e150 (=> e149 e23)) :named expr150))
(declare-const e151 Bool)
(assert (! (= e151 (= b24_discriminant_117 e129)) :named expr151))
(declare-const e152 Bool)
(assert (! (= e152 (=> e151 e23)) :named expr152))
(declare-const e153 Bool)
(assert (! (= e153 (= b24_discriminant_117 e135)) :named expr153))
(declare-const e154 Bool)
(assert (! (= e154 (=> e153 e23)) :named expr154))
(declare-const e155 Bool)
(assert (! (= e155 (= b24_discriminant_117 e112)) :named expr155))
(declare-const e156 Bool)
(assert (! (= e156 (=> e155 e23)) :named expr156))
(declare-const e157 Bool)
(assert (! (= e157 (and e148 e150)) :named expr157))
(declare-const e158 Bool)
(assert (! (= e158 (and e157 e152)) :named expr158))
(declare-const e159 Bool)
(assert (! (= e159 (and e158 e154)) :named expr159))
(declare-const e160 Bool)
(assert (! (= e160 (and e159 e156)) :named expr160))
(declare-const e161 Bool)
(assert (! (= e161 (= isa_store_active_12 e23)) :named expr161))
(declare-const e162 Bool)
(assert (! (= e162 (and e149 e150)) :named expr162))
(declare-const e163 Bool)
(assert (! (= e163 (and e162 e152)) :named expr163))
(declare-const e164 Bool)
(assert (! (= e164 (and e163 e154)) :named expr164))
(declare-const e165 Bool)
(assert (! (= e165 (and e164 e156)) :named expr165))
(declare-const e166 Bool)
(assert (! (= e166 (and e151 e150)) :named expr166))
(declare-const e167 Bool)
(assert (! (= e167 (and e166 e152)) :named expr167))
(declare-const e168 Bool)
(assert (! (= e168 (and e167 e154)) :named expr168))
(declare-const e169 Bool)
(assert (! (= e169 (and e168 e156)) :named expr169))
(declare-const e170 Bool)
(assert (! (= e170 (and e153 e150)) :named expr170))
(declare-const e171 Bool)
(assert (! (= e171 (and e170 e152)) :named expr171))
(declare-const e172 Bool)
(assert (! (= e172 (and e171 e154)) :named expr172))
(declare-const e173 Bool)
(assert (! (= e173 (and e172 e156)) :named expr173))
(declare-const e174 Bool)
(assert (! (= e174 (and e155 e150)) :named expr174))
(declare-const e175 Bool)
(assert (! (= e175 (and e174 e152)) :named expr175))
(declare-const e176 Bool)
(assert (! (= e176 (and e175 e154)) :named expr176))
(declare-const e177 Bool)
(assert (! (= e177 (and e176 e156)) :named expr177))
(declare-const undef_178 Int)
(declare-const e179 Int)
(assert (! (= e179 (ite e177 e26 undef_178)) :named expr179))
(declare-const e180 Int)
(assert (! (= e180 (ite e173 e133 e179)) :named expr180))
(declare-const e181 Int)
(assert (! (= e181 (ite e169 e127 e180)) :named expr181))
(declare-const e182 Int)
(assert (! (= e182 (ite e165 e122 e181)) :named expr182))
(declare-const e183 Bool)
(assert (! (= e183 (= isa_store_size_bits_13 e182)) :named expr183))
(declare-const e184 Bool)
(assert (! (= e184 (= isa_store_addr_14 b12_74)) :named expr184))
(declare-const e185 Bool)
(assert (! (= e185 (= isa_store_value_15 b13_92)) :named expr185))
(declare-const undef_Inst2_inst1_186 (_ BitVec 1))
(declare-const undef_Inst2_inst2_187 (_ BitVec 1))
(declare-const undef_Inst3_inst1_188 (_ BitVec 1))
(declare-const undef_Inst3_inst2_189 (_ BitVec 1))
(declare-const undef_Inst3_inst3_190 (_ BitVec 1))
(declare-const e191 Bool)
(assert (! (= e191 (< e111 e112)) :named expr191))
(declare-const e192 Bool)
(assert (! (= e192 (and e124 e191)) :named expr192))
(declare-const e193 Bool)
(assert (! (= e193 (= b26_discriminant_104 e111)) :named expr193))
(declare-const e194 Bool)
(assert (! (= e194 (= b26_Inst_inst_105 b25_116)) :named expr194))
(declare-const e195 Bool)
(assert (! (= e195 (=> e193 e194)) :named expr195))
(declare-const e196 Bool)
(assert (! (= e196 (= b26_discriminant_104 e129)) :named expr196))
(declare-const e197 Bool)
(assert (! (= e197 (= b26_Inst2_inst1_106 undef_Inst2_inst1_186)) :named expr197))
(declare-const e198 Bool)
(assert (! (= e198 (= b26_Inst2_inst2_107 undef_Inst2_inst2_187)) :named expr198))
(declare-const e199 Bool)
(assert (! (= e199 (and e197 e198)) :named expr199))
(declare-const e200 Bool)
(assert (! (= e200 (=> e196 e199)) :named expr200))
(declare-const e201 Bool)
(assert (! (= e201 (= b26_discriminant_104 e135)) :named expr201))
(declare-const e202 Bool)
(assert (! (= e202 (= b26_Inst3_inst1_108 undef_Inst3_inst1_188)) :named expr202))
(declare-const e203 Bool)
(assert (! (= e203 (= b26_Inst3_inst2_109 undef_Inst3_inst2_189)) :named expr203))
(declare-const e204 Bool)
(assert (! (= e204 (= b26_Inst3_inst3_110 undef_Inst3_inst3_190)) :named expr204))
(declare-const e205 Bool)
(assert (! (= e205 (and e202 e203)) :named expr205))
(declare-const e206 Bool)
(assert (! (= e206 (and e205 e204)) :named expr206))
(declare-const e207 Bool)
(assert (! (= e207 (=> e201 e206)) :named expr207))
(declare-const e208 Bool)
(assert (! (= e208 (and e193 e195)) :named expr208))
(declare-const e209 Bool)
(assert (! (= e209 (and e208 e200)) :named expr209))
(declare-const e210 Bool)
(assert (! (= e210 (and e209 e207)) :named expr210))
(declare-const e211 Bool)
(assert (! (= e211 (= b17_inner_99 b0_16)) :named expr211))
(declare-const e212 Bool)
(assert (! (= e212 (= b17_some_98 e23)) :named expr212))
(declare-const e213 Bool)
(assert (! (= e213 (=> e23 e211)) :named expr213))
(declare-const e214 Bool)
(assert (! (= e214 (not clif_load_active_1)) :named expr214))
(declare-const e215 Bool)
(assert (! (= e215 (not clif_store_active_4)) :named expr215))
(declare-const e216 Bool)
(assert (! (= e216 (= clif_store_size_bits_5 e129)) :named expr216))
(declare-const e217 Bool)
(assert (! (= e217 (and e215 e216)) :named expr217))
(declare-const e218 Bool)
(assert (! (= e218 (not e23)) :named expr218))
(declare-const e219 Bool)
(assert (! (= e219 (=> e218 e217)) :named expr219))
(declare-const e220 Bool)
(assert (! (= e220 (not clif_trap_8)) :named expr220))
(declare-const e221 Bool)
(assert (! (= e221 (not isa_load_active_9)) :named expr221))
(declare-const e222 Bool)
(assert (! (= e222 (not isa_store_active_12)) :named expr222))
(declare-const e223 Bool)
(assert (! (= e223 (= isa_store_size_bits_13 e129)) :named expr223))
(declare-const e224 Bool)
(assert (! (= e224 (and e222 e223)) :named expr224))
(declare-const e225 Bool)
(assert (! (= e225 (=> e218 e224)) :named expr225))
(push)
(assert (and e38 e39 e54 e56 e59 e63 e64 e69 e71 e73 e79 e84 e87 e90 e91 e94 e97 e101 b17_some_98 e102 e115 e121 e126 e132 e138 e142 e160 e126 e132 e138 e142 e161 e183 e184 e185 e192 e210 e23 e212 b3_some_17 b7_some_60 e23 e214 e219 e220 e221 e225))
(check-sat)
(pop)
(push)
(assert (not (=> (and e38 e39 e54 e56 e59 e63 e64 e69 e71 e73 e79 e84 e87 e90 e91 e94 e97 e101 b17_some_98 e102 e115 e121 e126 e132 e138 e142 e160 e126 e132 e138 e142 e161 e183 e184 e185 e192 e210 e23 e212 b3_some_17 b7_some_60 e23 e214 e219 e220 e221 e225) (and e82 e213))))
(check-sat)
(pop)
(exit)
